bomb.13.tsp
NAME : GeneratedProblem
COMMENT : SVGCrosshatch
TYPE : TSP
DIMENSION : 9
EDGE_WEIGHT_TYPE : EUC_2D
NODE_COORD_SECTION
1 3600 11800
2 3800 11300
3 3900 11900
4 4000 11200
5 4100 11200
6 4200 11200
7 4300 11200
8 4300 11700
9 4400 11800
EOF
