bomb.13.out.txt
NAME : GeneratedProblem.2530.tour
COMMENT : Length = 2530
COMMENT : Found by LKH [Keld Helsgaun] Sat Nov 24 14:17:56 2018
TYPE : TOUR
DIMENSION : 9
TOUR_SECTION
1
2
4
5
6
7
8
9
3
-1
EOF
